* Running in serial mode
>> Start of run:  16-JUN-2018  20:25:47

reinit: Reading from standard input
************************** Dump of input data file ****************************
# FDF for 1d Si chain
#
SystemName       1D Li GGA       # Descriptive name of the system
SystemLabel      Li1D_Elec       # Short name for naming files
%include STRUCT2.fdf
#%include BASIS.fdf
%block kgrid_Monkhorst_Pack
 2    0    0    0.00
 0    2    0    0.00
 0    0   10    0.00
%endblock kgrid_Monkhorst_Pack
XC.functional       GGA
XC.authors          PBE
MeshCutoff          250.0 Ry
SaveHS              T
DM.UseSaveDM        true     # to use continuation files
# Output options
WriteCoorStep
WriteMullikenPop       1
WriteBands          true
BandLinesScale      ReciprocalLatticeVectors
%block BandLines
1   0.     0.     -0.5      \Gamma
50  0.     0.      0.5      \pi/a
%endblock BandLines
************************** End of input data file *****************************

reinit: -----------------------------------------------------------------------
reinit: System Name: 1D Li GGA
reinit: -----------------------------------------------------------------------
reinit: System Label: Li1D_Elec
reinit: -----------------------------------------------------------------------

initatom: Reading input for the pseudopotentials and atomic orbitals ----------
 Species number:            1  Label: Li Atomic number:           3
Ground state valence configuration:   2s01
Reading pseudopotential information in formatted form from Li.psf

Valence configuration for pseudopotential generation:
2s( 1.00) rc: 2.28
2p( 0.00) rc: 2.28
3d( 0.00) rc: 2.59
4f( 0.00) rc: 2.59
For Li, standard SIESTA heuristics set lmxkb to 2
 (one more than the basis l, including polarization orbitals).
Use PS.lmax or PS.KBprojectors blocks to override.

<basis_specs>
Li                   Z=   3    Mass=  6.9400        Charge= 0.17977+309
Lmxo=0 Lmxkb= 2    BasisType=split      Semic=F
L=0  Nsemic=0  Cnfigmx=2
          n=1  nzeta=2  polorb=1
            splnorm:   0.15000
               vcte:    0.0000
               rinn:    0.0000
               qcoe:    0.0000
               qyuk:    0.0000
               qwid:   0.10000E-01
                rcs:    0.0000      0.0000
            lambdas:    1.0000      1.0000
L=0  Nkbl=1  erefs: 0.17977+309
L=1  Nkbl=1  erefs: 0.17977+309
L=2  Nkbl=1  erefs: 0.17977+309
</basis_specs>

atom: Called for Li                    (Z =   3)

read_vps: Pseudopotential generation method:
read_vps: ATM 3.2.2 Troullier-Martins
Total valence charge:    1.00000

read_vps: Pseudopotential includes a core correction:
read_vps: Pseudo-core for xc-correction

xc_check: Exchange-correlation functional:
xc_check: GGA Perdew, Burke & Ernzerhof 1996
V l=0 = -2*Zval/r beyond r=  2.2278
V l=1 = -2*Zval/r beyond r=  2.2278
V l=2 = -2*Zval/r beyond r=  2.5245
All V_l potentials equal beyond r=  2.4622
This should be close to max(r_c) in ps generation
All pots = -2*Zval/r beyond r=  2.5245

VLOCAL1: 99.0% of the norm of Vloc inside      7.160 Ry
VLOCAL1: 99.9% of the norm of Vloc inside     16.318 Ry
atom: Maximum radius for 4*pi*r*r*local-pseudopot. charge    2.86079
atom: Maximum radius for r*vlocal+2*Zval:    2.43160
GHOST: No ghost state for L =  0
GHOST: No ghost state for L =  1
GHOST: No ghost state for L =  2

KBgen: Kleinman-Bylander projectors:
   l= 0   rc=  2.654023   el= -0.211234   Ekb=  1.742119   kbcos=  0.228463
   l= 1   rc=  2.721230   el= -0.080095   Ekb= -1.122375   kbcos= -0.147941
   l= 2   rc=  2.825246   el=  0.002001   Ekb= -0.207076   kbcos= -0.031965

KBgen: Total number of  Kleinman-Bylander projectors:    9
atom: -------------------------------------------------------------------------

atom: SANKEY-TYPE ORBITALS:
atom: Selected multiple-zeta basis: split

SPLIT: Orbitals with angular momentum L= 0

SPLIT: Basis orbitals for state 2s

SPLIT: PAO cut-off radius determined from an
SPLIT: energy shift=  0.020000 Ry

   izeta = 1
                 lambda =    1.000000
                     rc =    7.777862
                 energy =   -0.191770
                kinetic =    0.194275
    potential(screened) =   -0.386045
       potential(ionic) =   -0.565895

   izeta = 2
                 rmatch =    7.681234
              splitnorm =    0.150000
                 energy =   -0.167028
                kinetic =    0.263262
    potential(screened) =   -0.430290
       potential(ionic) =   -0.611963

POLgen: Perturbative polarization orbital with L=  1

POLgen: Polarization orbital for state 2s

   izeta = 1
                     rc =    7.777862
                 energy =    0.033198
                kinetic =    0.399432
    potential(screened) =   -0.366234
       potential(ionic) =   -0.549139
atom: Total number of Sankey-type orbitals:  5

atm_pop: Valence configuration (for local Pseudopot. screening):
 2s( 1.00)
Vna: chval, zval:    1.00000   1.00000

Vna:  Cut-off radius for the neutral-atom potential:   7.777862
comcore: Pseudo-core radius Rcore=  3.450946

atom: _________________________________________________________________________

prinput: Basis input ----------------------------------------------------------

PAO.BasisType split

%block ChemicalSpeciesLabel
    1    3 Li                      # Species index, atomic number, species label
%endblock ChemicalSpeciesLabel

%block PAO.Basis                 # Define Basis set
Li                    1                    # Species label, number of l-shells
 n=2   0   2 P   1                   # n, l, Nzeta, Polarization, NzetaPol
   7.778      7.681
   1.000      1.000
%endblock PAO.Basis

prinput: ----------------------------------------------------------------------

coor:   Atomic-coordinates input format  =     Cartesian coordinates
coor:                                          (in units of alat)

siesta: Atomic coordinates (Bohr) and species
siesta:     17.00754  14.17295   2.83459  1        1
siesta:     17.00754  14.17295   8.50377  1        2
siesta:     17.00754  14.17295  14.17295  1        3
siesta:     17.00754  14.17295  19.84213  1        4

siesta: System type = chain

initatomlists: Number of atoms, orbitals, and projectors:      4    20    36

siesta: ******************** Simulation parameters ****************************
siesta:
siesta: The following are some of the parameters of the simulation.
siesta: A complete list of the parameters used, including default values,
siesta: can be found in file out.fdf
siesta:
redata: Non-Collinear-spin run           =     F
redata: SpinPolarized (Up/Down) run      =     F
redata: Number of spin components        =     1
redata: Long output                      =     F
redata: Number of Atomic Species         =        1
redata: Charge density info will appear in .RHO file
redata: Write Mulliken Pop.              =     Atomic and Orbital charges
redata: Mesh Cutoff                      =   250.0000  Ry
redata: Net charge of the system         =     0.0000 |e|
redata: Min. number of SCF Iter          =        0
redata: Max. number of SCF Iter          =       50
redata: Mix DM or H after convergence    =     F
redata: Recompute H after scf cycle      =     F
redata: Mixing is linear
redata: Mix DM in first SCF step ?       =     F
redata: Write Pulay info on disk?        =     F
redata: Discard 1st Pulay DM after  kick =     F
redata: New DM Mixing Weight             =     0.2500
redata: New DM Occupancy tolerance       = 0.000000000001
redata: No kicks to SCF
redata: DM Mixing Weight for Kicks       =     0.5000
redata: DM Tolerance for SCF             =     0.000100
redata: Require (free) Energy convergence in SCF =     F
redata: DM (free)Energy tolerance for SCF =     0.000010 eV
redata: Require Harris convergence for SCF =     F
redata: DM Harris energy tolerance for SCF =     0.000010 eV
redata: Using Saved Data (generic)   =     F
redata: Use continuation files for DM    =     T
redata: Neglect nonoverlap interactions  =     F
redata: Method of Calculation            =     Diagonalization
redata: Divide and Conquer               =     T
redata: Electronic Temperature           =     0.0019  Ry
redata: Fix the spin of the system       =     F
redata: Dynamics option                  =     Single-point calculation
redata: ***********************************************************************
Total number of electrons:     4.000000
Total ionic charge:     4.000000
k-point displ. along   1 input, could be:     0.00    0.50
k-point displ. along   2 input, could be:     0.00    0.50
k-point displ. along   3 input, could be:     0.00    0.50
 Kpoints in:           24 . Kpoints trimmed:           24

siesta: k-grid: Number of k-points =    24
siesta: k-grid: Cutoff (effective) =    15.000 Ang
siesta: k-grid: Supercell and displacements
siesta: k-grid:    2   0   0      0.000
siesta: k-grid:    0   2   0      0.000
siesta: k-grid:    0   0  10      0.000

ts_read_options: **************************************************************
ts_read_options: Save H and S matrices        =    T
ts_read_options: Save S and quit (onlyS)      =    F
k-point displ. along   1 input, could be:     0.00    0.50
k-point displ. along   2 input, could be:     0.00    0.50
 Kpoints in:            4 . Kpoints trimmed:            4

transiesta: ts_k-grid: Number of Transport k-points =     4
transiesta: ts_k-grid: Supercell and displacements
transiesta: ts_k-grid:    2   0   0      0.000
transiesta: ts_k-grid:    0   2   0      0.000
Using current reciprocal lattice vectors for BandLinesScale
Beware any cell changes by the end of the run
Using current reciprocal lattice vectors for BandLinesScale
Beware any cell changes by the end of the run
Naive supercell factors:     2    2    2

superc: Internal auxiliary supercell:     2 x     2 x     2  =       8
superc: Number of atoms, orbitals, and projectors:     32    160    288

                        Single-point calculation

outcoor: Atomic coordinates (scaled):
    3.00000000    2.50000000    0.50000000   1       1  Li
    3.00000000    2.50000000    1.50000000   1       2  Li
    3.00000000    2.50000000    2.50000000   1       3  Li
    3.00000000    2.50000000    3.50000000   1       4  Li

superc: Internal auxiliary supercell:     2 x     2 x     2  =       8
superc: Number of atoms, orbitals, and projectors:     32    160    288

outcell: Unit cell vectors (Ang):
       18.000000    0.000000    0.000000
        0.000000   15.000000    0.000000
        0.000000    0.000000   12.000000

outcell: Cell vector modules (Ang)   :   18.000000   15.000000   12.000000
outcell: Cell angles (23,13,12) (deg):     90.0000     90.0000     90.0000
outcell: Cell volume (Ang**3)        :   3240.0000
New_DM. Step:     1
Initializing Density Matrix...

iodm: Reading Density Matrix from files
Note: For starting DM, Qtot, Tr[D*S] =          4.00000000          4.10889478
New grid distribution:   1
           1       1:   90    1:   72    1:   60

InitMesh: MESH =   180 x   144 x   120 =     3110400
InitMesh: (bp) =    90 x    72 x    60 =      388800
InitMesh: Mesh cutoff (required, used) =   250.000   254.709 Ry
ExtMesh (bp) on 0 =   174 x   152 x   144 =     3808512
PhiOnMesh: Number of (b)points on node 0 =               388800
PhiOnMesh: nlist on node 0 =               734592

stepf: Fermi-Dirac step function

siesta: Program's energy decomposition (eV):
siesta: Ebs     =       -13.611728
siesta: Eions   =        39.516810
siesta: Ena     =        16.698388
siesta: Ekin    =         9.144385
siesta: Enl     =         6.559497
siesta: DEna    =        -0.625421
siesta: DUscf   =         0.052623
siesta: DUext   =         0.000000
siesta: Exc     =       -25.351904
siesta: eta*DQ  =         0.000000
siesta: Emadel  =         0.000000
siesta: Emeta   =         0.000000
siesta: Emolmec =         0.000000
siesta: Ekinion =         0.000000
siesta: Eharris =       -33.034737
siesta: Etot    =       -33.039241
siesta: FreeEng =       -33.046685

SCF Convergence by dMax criterion
max |DM_out - DM_in|:     0.00007949
SCF cycle converged after    8 iterations

Using DM_out to compute the final energy and forces

siesta: E_KS(eV) =              -33.0348

siesta: E_KS - E_eggbox =       -33.0348

siesta: Atomic forces (eV/Ang):
   Tot   -0.000000   -0.000000    0.000000
   Max    0.000000
   Res    0.000000    sqrt( Sum f_i^2 / 3N )
   Max    0.000000    constrained

Stress-tensor-Voigt (kbar):       -0.00       -0.00       -0.26        0.00        0.00        0.00
(Free)E + p*V (eV/cell)      -32.8670
Target enthalpy (eV/cell)      -33.0422

mulliken: Atomic and Orbital Populations:

Species: Li
Atom  Qatom  Qorb
   1  1.000   0.715   0.191   0.000   0.094   0.000
   2  1.000   0.715   0.191   0.000   0.094   0.000
   3  1.000   0.715   0.191   0.000   0.094   0.000
   4  1.000   0.715   0.191   0.000   0.094   0.000

mulliken: Qtot =        4.000
Computing bands...

siesta: Band energies (eV):
  ik is    eps
   1  1  -3.46  -3.46  -1.85  -1.85  -0.78  -0.78  -0.78  -0.78   1.58   1.58
          1.58   1.58   2.56   2.56   5.46   5.46   9.61   9.61  12.71  12.71
   2  1  -3.48  -3.45  -1.90  -1.81  -0.80  -0.80  -0.76  -0.76   1.50   1.50
          1.65   1.65   2.47   2.66   5.43   5.50   9.48   9.74  12.50  12.93
   3  1  -3.50  -3.43  -1.94  -1.77  -0.82  -0.82  -0.74  -0.74   1.43   1.43
          1.72   1.72   2.38   2.75   5.40   5.54   9.36   9.87  12.28  13.14
   4  1  -3.51  -3.41  -1.99  -1.72  -0.84  -0.84  -0.71  -0.71   1.36   1.36
          1.79   1.79   2.29   2.85   5.37   5.58   9.25  10.00  12.06  13.35
   5  1  -3.53  -3.39  -2.03  -1.68  -0.86  -0.86  -0.69  -0.69   1.29   1.29
          1.86   1.86   2.21   2.95   5.34   5.62   9.13  10.13  11.85  13.56
   6  1  -3.54  -3.37  -2.07  -1.63  -0.88  -0.88  -0.66  -0.66   1.22   1.22
          1.93   1.93   2.12   3.05   5.32   5.67   9.02  10.27  11.64  13.76
   7  1  -3.55  -3.35  -2.11  -1.59  -0.89  -0.89  -0.64  -0.64   1.15   1.15
          2.00   2.00   2.04   3.14   5.29   5.72   8.92  10.40  11.42  13.96
   8  1  -3.57  -3.33  -2.16  -1.55  -0.91  -0.91  -0.61  -0.61   1.09   1.09
          1.96   2.07   2.07   3.24   5.27   5.77   8.82  10.54  11.21  14.16
   9  1  -3.58  -3.31  -2.20  -1.50  -0.92  -0.92  -0.58  -0.58   1.02   1.02
          1.88   2.14   2.14   3.35   5.25   5.83   8.73  10.67  11.01  14.35
  10  1  -3.59  -3.28  -2.24  -1.46  -0.94  -0.94  -0.55  -0.55   0.95   0.95
          1.80   2.20   2.20   3.45   5.23   5.88   8.64  10.80  10.80  14.53
  11  1  -3.60  -3.26  -2.28  -1.42  -0.95  -0.95  -0.52  -0.52   0.89   0.89
          1.73   2.26   2.26   3.55   5.21   5.94   8.56  10.60  10.93  14.71
  12  1  -3.61  -3.24  -2.32  -1.38  -0.96  -0.96  -0.49  -0.49   0.83   0.83
          1.66   2.33   2.33   3.65   5.19   6.00   8.49  10.41  11.06  14.88
  13  1  -3.62  -3.21  -2.36  -1.34  -0.97  -0.97  -0.46  -0.46   0.76   0.76
          1.59   2.38   2.38   3.75   5.18   6.06   8.42  10.22  11.18  15.04
  14  1  -3.63  -3.19  -2.40  -1.30  -0.98  -0.98  -0.42  -0.42   0.70   0.70
          1.53   2.44   2.44   3.84   5.16   6.13   8.37  10.03  11.30  15.19
  15  1  -3.64  -3.16  -2.44  -1.26  -0.99  -0.99  -0.39  -0.39   0.64   0.64
          1.47   2.49   2.49   3.94   5.14   6.19   8.32   9.85  11.41  15.34
  16  1  -3.64  -3.13  -2.48  -1.23  -1.00  -1.00  -0.36  -0.36   0.58   0.58
          1.41   2.54   2.54   4.04   5.12   6.25   8.28   9.68  11.51  15.47
  17  1  -3.65  -3.11  -2.52  -1.19  -1.01  -1.01  -0.32  -0.32   0.52   0.52
          1.36   2.59   2.59   4.13   5.10   6.31   8.24   9.51  11.61  15.59
  18  1  -3.66  -3.08  -2.55  -1.16  -1.02  -1.02  -0.28  -0.28   0.47   0.47
          1.31   2.63   2.63   4.22   5.08   6.37   8.22   9.36  11.70  15.70
  19  1  -3.66  -3.05  -2.59  -1.13  -1.02  -1.02  -0.24  -0.24   0.41   0.41
          1.27   2.67   2.67   4.31   5.06   6.42   8.21   9.21  11.78  15.80
  20  1  -3.67  -3.02  -2.63  -1.11  -1.03  -1.03  -0.20  -0.20   0.36   0.36
          1.23   2.70   2.70   4.39   5.03   6.47   8.20   9.06  11.86  15.89
  21  1  -3.67  -2.99  -2.66  -1.09  -1.03  -1.03  -0.16  -0.16   0.30   0.30
          1.20   2.73   2.73   4.47   5.00   6.51   8.21   8.93  11.92  15.97
  22  1  -3.67  -2.96  -2.70  -1.07  -1.04  -1.04  -0.12  -0.12   0.25   0.25
          1.17   2.75   2.75   4.55   4.97   6.55   8.23   8.81  11.97  16.03
  23  1  -3.67  -2.93  -2.73  -1.05  -1.04  -1.04  -0.08  -0.08   0.20   0.20
          1.15   2.77   2.77   4.62   4.93   6.58   8.26   8.70  12.01  16.08
  24  1  -3.68  -2.90  -2.77  -1.04  -1.04  -1.04  -0.04  -0.04   0.15   0.15
          1.13   2.78   2.78   4.68   4.89   6.60   8.31   8.60  12.04  16.11
  25  1  -3.68  -2.87  -2.80  -1.04  -1.04  -1.04   0.01   0.01   0.10   0.10
          1.12   2.79   2.79   4.74   4.85   6.61   8.36   8.51  12.06  16.13
  26  1  -3.68  -2.84  -2.84  -1.04  -1.04  -1.03   0.06   0.06   0.06   0.06
          1.12   2.79   2.79   4.80   4.80   6.62   8.43   8.43  12.06  16.14
  27  1  -3.68  -2.87  -2.80  -1.04  -1.04  -1.04   0.01   0.01   0.10   0.10
          1.12   2.79   2.79   4.74   4.85   6.61   8.36   8.51  12.06  16.13
  28  1  -3.68  -2.90  -2.77  -1.04  -1.04  -1.04  -0.04  -0.04   0.15   0.15
          1.13   2.78   2.78   4.68   4.89   6.60   8.31   8.60  12.04  16.11
  29  1  -3.67  -2.93  -2.73  -1.05  -1.04  -1.04  -0.08  -0.08   0.20   0.20
          1.15   2.77   2.77   4.62   4.93   6.58   8.26   8.70  12.01  16.08
  30  1  -3.67  -2.96  -2.70  -1.07  -1.04  -1.04  -0.12  -0.12   0.25   0.25
          1.17   2.75   2.75   4.55   4.97   6.55   8.23   8.81  11.97  16.03
[...]
          1.96   2.07   2.07   3.24   5.27   5.77   8.82  10.54  11.21  14.16
  45  1  -3.55  -3.35  -2.11  -1.59  -0.89  -0.89  -0.64  -0.64   1.15   1.15
          2.00   2.00   2.04   3.14   5.29   5.72   8.92  10.40  11.42  13.96
  46  1  -3.54  -3.37  -2.07  -1.63  -0.88  -0.88  -0.66  -0.66   1.22   1.22
          1.93   1.93   2.12   3.05   5.32   5.67   9.02  10.27  11.64  13.76
  47  1  -3.53  -3.39  -2.03  -1.68  -0.86  -0.86  -0.69  -0.69   1.29   1.29
          1.86   1.86   2.21   2.95   5.34   5.62   9.13  10.13  11.85  13.56
  48  1  -3.51  -3.41  -1.99  -1.72  -0.84  -0.84  -0.71  -0.71   1.36   1.36
          1.79   1.79   2.29   2.85   5.37   5.58   9.25  10.00  12.06  13.35
  49  1  -3.50  -3.43  -1.94  -1.77  -0.82  -0.82  -0.74  -0.74   1.43   1.43
          1.72   1.72   2.38   2.75   5.40   5.54   9.36   9.87  12.28  13.14
  50  1  -3.48  -3.45  -1.90  -1.81  -0.80  -0.80  -0.76  -0.76   1.50   1.50
          1.65   1.65   2.47   2.66   5.43   5.50   9.48   9.74  12.50  12.93
  51  1  -3.46  -3.46  -1.85  -1.85  -0.78  -0.78  -0.78  -0.78   1.58   1.58
          1.58   1.58   2.56   2.56   5.46   5.46   9.61   9.61  12.71  12.71

siesta: Program's energy decomposition (eV):
siesta: Ebs     =       -13.569933
siesta: Eions   =        39.516810
siesta: Ena     =        16.698388
siesta: Ekin    =         9.206035
siesta: Enl     =         6.549037
siesta: DEna    =        -0.649882
siesta: DUscf   =         0.056074
siesta: DUext   =         0.000000
siesta: Exc     =       -25.377601
siesta: eta*DQ  =         0.000000
siesta: Emadel  =         0.000000
siesta: Emeta   =         0.000000
siesta: Emolmec =         0.000000
siesta: Ekinion =         0.000000
siesta: Eharris =       -33.034759
siesta: Etot    =       -33.034759
siesta: FreeEng =       -33.042202

siesta: Final energy (eV):
siesta:  Band Struct. =     -13.569933
siesta:       Kinetic =       9.206035
siesta:       Hartree =      20.216735
siesta:    Ext. field =       0.000000
siesta:   Exch.-corr. =     -25.377601
siesta:  Ion-electron =     -43.113924
siesta:       Ion-ion =       6.033996
siesta:       Ekinion =       0.000000
siesta:         Total =     -33.034759

siesta: Stress tensor (static) (eV/Ang**3):
siesta:    -0.000001   -0.000000    0.000000
siesta:     0.000000   -0.000001    0.000000
siesta:     0.000000    0.000000   -0.000160

siesta: Cell volume =       3240.000000 Ang**3

siesta: Pressure (static):
siesta:                Solid            Molecule  Units
siesta:           0.00000059          0.00000059  Ry/Bohr**3
siesta:           0.00005407          0.00005407  eV/Ang**3
siesta:           0.08662652          0.08662652  kBar
(Free)E+ p_basis*V_orbitals  =         -28.720979
(Free)Eharris+ p_basis*V_orbitals  =         -28.720979

siesta: Electric dipole (a.u.)  =   -0.000000    0.000000   -0.000000
siesta: Electric dipole (Debye) =   -0.000000    0.000000   -0.000000

Routine            Calls   Time/call    Tot.time        %
siesta                 1      37.022      37.022   100.00
Setup                  1       0.143       0.143     0.39
bands                  3       0.002       0.007     0.02
KSV_init               1       0.000       0.000     0.00
IterGeom               1      36.860      36.860    99.56
state_init             1       0.011       0.011     0.03
hsparse                1       0.000       0.000     0.00
overlap                1       0.009       0.009     0.03
Setup_H0               1       2.592       2.592     7.00
naefs                  2       0.000       0.000     0.00
MolMec                 2       0.000       0.000     0.00
kinefsm                2       0.003       0.007     0.02
nlefsm                 2       0.017       0.034     0.09
DHSCF_Init             1       2.552       2.552     6.89
DHSCF1                 1       0.197       0.197     0.53
INITMESH               1       0.000       0.000     0.00
DHSCF2                 1       2.354       2.354     6.36
REMESH                 1       0.082       0.082     0.22
REORD                 33       0.021       0.685     1.85
PHION                  1       1.086       1.086     2.93
COMM_BSC              21       0.022       0.454     1.23
POISON                10       0.759       7.589    20.50
fft                   20       0.298       5.962    16.10
IterSCF                8       3.587      28.696    77.51
setup_H                8       3.576      28.608    77.27
DHSCF                  9       3.789      34.097    92.10
DHSCF3                 9       3.567      32.106    86.72
rhoofd                 9       0.126       1.130     3.05
cellXC                 9       2.284      20.558    55.53
vmat                   9       0.102       0.922     2.49
writeHSX               9       0.000       0.003     0.01
compute_dm             8       0.011       0.084     0.23
diagon                 8       0.010       0.083     0.22
c-eigval             243       0.000       0.029     0.08
c-buildHS            243       0.000       0.010     0.03
cdiag                435       0.000       0.054     0.15
cdiag1               435       0.000       0.004     0.01
cdiag2               435       0.000       0.008     0.02
cdiag3               435       0.000       0.039     0.10
cdiag4               435       0.000       0.001     0.00
c-eigvec             192       0.000       0.044     0.12
c-buildD             192       0.000       0.010     0.03
MIXER                  7       0.000       0.000     0.00
WriteDM                8       0.000       0.001     0.00
PostSCF                1       5.560       5.560    15.02
DHSCF4                 1       1.990       1.990     5.38
dfscf                  1       1.456       1.456     3.93
overfsm                1       0.000       0.000     0.00
state_analysis         1       0.002       0.002     0.00
siesta_move            1       0.000       0.000     0.00
optical                1       0.000       0.000     0.00

>> End of run:  16-JUN-2018  20:26:25
Job completed